qbf_easy_train/easy_5799_SAT.qdimacs
p cnf 42 121
a 8 29 6 0
e 1 2 3 4 5 7 9 10 11 12 13 14 15 16 17 18 19 20 21 22 23 24 25 26 27 28 30 31 32 33 34 35 36 37 38 39 40 41 42 0
3 2 0
3 -2 0
3 4 -5 0
-3 -4 -5 0
3 -4 5 0
-3 4 5 0
-6 -5 0
-6 1 0
5 -1 6 0
1 6 -7 0
-1 -6 -7 0
1 -6 7 0
-1 6 7 0
10 -8 0
10 -9 0
8 9 -10 0
-12 -10 0
-12 11 0
10 -11 12 0
13 9 0
13 4 0
-9 -4 -13 0
13 3 -14 0
-13 -3 -14 0
13 -3 14 0
-13 3 14 0
15 8 0
15 -9 0
-8 9 -15 0
16 10 0
16 -15 0
-10 15 -16 0
9 -4 -17 0
-9 4 -17 0
9 4 17 0
-9 -4 17 0
-18 17 0
-18 -3 0
-17 3 18 0
-19 16 0
-19 18 0
-16 -18 19 0
-20 8 0
-20 8 0
-8 20 0
21 19 0
21 20 0
-19 -20 -21 0
-22 14 0
-22 21 0
-14 -21 22 0
-23 -12 0
-23 22 0
12 -22 23 0
24 7 0
24 23 0
-7 -23 -24 0
25 9 0
25 -9 0
-25 26 -27 0
25 -26 -27 0
-25 -26 27 0
25 26 27 0
-28 27 0
-28 -9 0
-27 9 28 0
27 6 -29 0
-27 -6 -29 0
27 -6 29 0
-27 6 29 0
-30 -18 0
-30 -15 0
18 15 30 0
-31 11 0
-31 10 0
-11 -10 31 0
-9 2 -32 0
9 -2 -32 0
-9 -2 32 0
9 2 32 0
-33 -32 0
-33 4 0
32 -4 33 0
-31 -33 -34 0
31 33 -34 0
-31 33 34 0
31 -33 34 0
30 34 -35 0
-30 -34 -35 0
30 -34 35 0
-30 34 35 0
37 9 0
37 3 0
-9 -3 -37 0
-38 -36 0
-38 -37 0
36 37 38 0
-39 -35 0
-39 38 0
35 -38 39 0
40 -29 0
40 39 0
29 -39 -40 0
-41 -28 0
-41 40 0
28 -40 41 0
42 -24 0
42 -41 0
24 41 -42 0
-36 -21 -10 26 -4 0
7 5 -1 -34 0
3 -22 -23 20 -37 10 0
-23 -11 -28 24 -2 37 7 0
-1 -31 -37 25 30 -12 0
15 -32 39 13 0
24 30 -22 -14 10 0
6 -23 2 5 0
19 -18 -14 24 -30 37 0
4 -16 9 0
-37 -28 26 10 -9 -2 0
42 0
