sat_easy_train/easy_5799_SAT.dimacs
p cnf 119 390
5 3 0
5 4 0
-3 -4 -5 0
-6 -2 0
-6 -5 0
2 5 6 0
-7 1 0
-7 -6 0
-1 6 7 0
-8 -9 -10 0
8 9 -10 0
-8 9 10 0
8 -9 10 0
-11 10 0
-11 -5 0
-10 5 11 0
-12 7 0
-12 11 0
-7 -11 12 0
14 -13 0
14 1 0
13 -1 -14 0
13 14 -15 0
-13 -14 -15 0
13 -14 15 0
-13 14 15 0
17 4 0
17 -16 0
-4 16 -17 0
17 18 -19 0
-17 -18 -19 0
17 -18 19 0
-17 18 19 0
-21 -16 0
-21 -20 0
16 20 21 0
2 -21 -22 0
-2 21 -22 0
2 21 22 0
-2 -21 22 0
19 22 -23 0
-19 -22 -23 0
19 -22 23 0
-19 22 23 0
-15 -23 -24 0
15 23 -24 0
-15 23 24 0
15 -23 24 0
5 3 -25 0
-5 -3 -25 0
5 -3 25 0
-5 3 25 0
-25 1 -26 0
25 -1 -26 0
-25 -1 26 0
25 1 26 0
27 25 0
27 26 0
-25 -26 -27 0
-28 24 0
-28 27 0
-24 -27 28 0
-15 -29 -30 0
15 29 -30 0
-15 29 30 0
15 -29 30 0
32 31 0
32 8 0
-31 -8 -32 0
33 30 0
33 -32 0
-30 32 -33 0
34 -2 0
34 13 0
2 -13 -34 0
36 15 0
36 -35 0
-15 35 -36 0
37 34 0
37 36 0
-34 -36 -37 0
38 -33 0
38 37 0
33 -37 -38 0
-39 -28 0
-39 -38 0
28 38 39 0
40 -34 0
40 14 0
34 -14 -40 0
39 40 -41 0
-39 -40 -41 0
39 -40 41 0
-39 40 41 0
10 -2 -42 0
-10 2 -42 0
10 2 42 0
-10 -2 42 0
-43 42 0
-43 -19 0
-42 19 43 0
44 -31 0
44 43 0
31 -43 -44 0
-10 44 -45 0
10 -44 -45 0
-10 -44 45 0
10 44 45 0
46 -4 0
46 -15 0
4 15 -46 0
47 -34 0
47 46 0
34 -46 -47 0
47 -19 -48 0
-47 19 -48 0
47 19 48 0
-47 -19 48 0
47 19 -49 0
-47 -19 -49 0
47 -19 49 0
-47 19 49 0
26 49 -50 0
-26 -49 -50 0
26 -49 50 0
-26 49 50 0
-51 -5 0
-51 -8 0
5 8 51 0
52 50 0
52 51 0
-50 -51 -52 0
-53 -11 0
-53 -4 0
11 4 53 0
-54 10 0
-54 -16 0
-10 16 54 0
55 53 0
55 -54 0
-53 54 -55 0
56 -42 0
56 -26 0
42 26 -56 0
-55 -56 -57 0
55 56 -57 0
-55 56 57 0
55 -56 57 0
-58 -10 0
-58 -32 0
10 32 58 0
59 26 0
59 58 0
-26 -58 -59 0
-60 57 0
-60 -59 0
-57 59 60 0
-61 -52 0
-61 60 0
52 -60 61 0
-62 48 0
-62 -61 0
-48 61 62 0
63 45 0
63 -62 0
-45 62 -63 0
64 -41 0
64 -63 0
41 63 -64 0
66 26 0
66 65 0
-26 -65 -66 0
64 -66 -67 0
-64 66 -67 0
64 66 67 0
-64 -66 67 0
-69 -68 0
-69 8 0
68 -8 69 0
-71 69 0
-71 -70 0
-69 70 71 0
-72 -26 0
-72 68 0
26 -68 72 0
14 4 -73 0
-14 -4 -73 0
14 -4 73 0
-14 4 73 0
-74 4 0
-74 -5 0
-4 5 74 0
-75 -74 0
-75 25 0
74 -25 75 0
76 11 0
76 -75 0
-11 75 -76 0
77 -73 0
77 -76 0
73 76 -77 0
-78 -14 0
-78 -29 0
14 29 78 0
77 -78 -79 0
-77 78 -79 0
77 78 79 0
-77 -78 79 0
-80 72 0
-80 -79 0
-72 79 80 0
81 8 0
81 16 0
-8 -16 -81 0
-82 81 0
-82 13 0
-81 -13 82 0
-68 10 -83 0
68 -10 -83 0
-68 -10 83 0
68 10 83 0
84 -83 0
84 -32 0
83 32 -84 0
-85 82 0
-85 -84 0
-82 84 85 0
80 85 -86 0
-80 -85 -86 0
80 -85 86 0
-80 85 86 0
-71 -86 -87 0
71 86 -87 0
-71 86 87 0
71 -86 87 0
-88 -67 0
-88 -87 0
67 87 88 0
89 12 0
89 88 0
-12 -88 -89 0
-17 4 -90 0
17 -4 -90 0
-17 -4 90 0
17 4 90 0
-91 -34 0
-91 -4 0
34 4 91 0
92 -90 0
92 -91 0
90 91 -92 0
93 15 0
93 30 0
-15 -30 -93 0
-94 -92 0
-94 -93 0
92 93 94 0
-95 53 0
-95 18 0
-53 -18 95 0
96 -9 0
96 81 0
9 -81 -96 0
-97 95 0
-97 96 0
-95 -96 97 0
-43 -29 -98 0
43 29 -98 0
-43 29 98 0
43 -29 98 0
-99 -26 0
-99 83 0
26 -83 99 0
-100 -99 0
-100 -2 0
99 2 100 0
101 -98 0
101 -100 0
98 100 -101 0
-102 15 0
-102 25 0
-15 -25 102 0
25 102 -103 0
-25 -102 -103 0
25 -102 103 0
-25 102 103 0
101 -103 -104 0
-101 103 -104 0
101 103 104 0
-101 -103 104 0
105 97 0
105 -104 0
-97 104 -105 0
-106 -74 0
-106 34 0
74 -34 106 0
-106 -14 -107 0
106 14 -107 0
-106 14 107 0
106 -14 107 0
-46 32 -108 0
46 -32 -108 0
-46 -32 108 0
46 32 108 0
-109 46 0
-109 -81 0
-46 81 109 0
-110 108 0
-110 -109 0
-108 109 110 0
111 -107 0
111 110 0
107 -110 -111 0
-112 -105 0
-112 111 0
105 -111 112 0
-113 14 0
-113 -43 0
-14 43 113 0
-114 74 0
-114 -9 0
-74 9 114 0
-115 114 0
-115 53 0
-114 -53 115 0
113 -115 -116 0
-113 115 -116 0
113 115 116 0
-113 -115 116 0
-117 112 0
-117 -116 0
-112 116 117 0
118 -94 0
118 117 0
94 -117 -118 0
119 89 0
119 -118 0
-89 118 -119 0
-1 86 -77 35 84 0
78 52 89 -10 0
-31 -104 0
59 6 34 0
38 86 -68 110 0
-24 116 92 36 103 0
99 78 0
12 2 79 58 0
58 109 92 28 0
-70 21 11 0
6 -3 -104 74 0
-22 -77 0
85 39 -3 110 0
57 75 70 -116 -22 46 0
119 85 72 0
-64 -62 -36 0
3 100 -55 9 0
-53 -115 -9 -1 -6 30 0
15 43 0
69 -111 26 72 103 0
44 78 -43 -113 0
-69 -93 -89 0
-55 -11 -51 -1 105 -71 0
70 14 67 91 -5 0
97 -104 -117 0
-101 -50 84 116 -40 0
63 2 109 0
109 41 0
19 119 31 89 0
-53 97 55 -98 70 0
2 112 -84 0
14 105 47 0
34 41 -69 56 -9 0
63 -4 -50 81 0
36 26 -3 85 -79 -119 0
-63 77 -106 -90 119 62 0
39 -70 68 28 66 0
104 -21 0
-9 -51 15 -47 -3 54 0
80 -72 -75 0
-34 -46 -94 0
32 82 -49 -101 27 0
107 -91 -29 0
-49 34 -115 86 93 -17 0
-4 73 100 0
111 -87 -60 -22 0
-26 101 0
88 -99 38 0
-114 13 68 -61 -85 0
-116 -93 -14 81 0
61 82 72 -14 37 -18 0
119 0
